(set-logic HORN)
(declare-fun state (Int Int Int Int Int Int Int Int Int Int Int Int Int (Array Int Int) (Array Int Int) Int (Array Int Int) (Array Int Int) Int Int Int Int Int Int Int Int Int Int Int Int Int Int Int Int Int Int Int Int Int Int Int Int Int Int Int Bool Bool Bool Bool (Array Int Int) Int) Bool)
(assert (forall ((|A_3| Int) (|B_3| Int) (|C_3| Int) (|D_3| Int) (|E_3| Int) (|F_3| Int) (|G_3| Int) (|H_3| Int) (|I_3| Int) (|J_3| Int) (|K_3| Int) (|L_3| Int) (|M_3| Int) (|N_3| (Array Int Int)) (|O_3| (Array Int Int)) (|P_3| Int) (|Q_3| (Array Int Int)) (|R_3| (Array Int Int)) (|S_3| Int) (|T_3| Int) (|U_3| Int) (|V_3| Int) (|W_3| Int) (|U1_2| Int) (|Y_3| Int) (|Z_3| Int) (|A1_3| Int) (|B1_3| Int) (|C1_3| Int) (|D1_3| Int) (|E1_3| Int) (|F1_3| Int) (|G1_3| Int) (|H1_3| Int) (|I1_3| Int) (|J1_3| Int) (|K1_3| Int) (|L1_3| Int) (|M1_3| Int) (|N1_3| Int) (|V1_1| Int) (|P1_3| Int) (|Q1_3| Int) (|R1_3| Int) (|S1_3| Int) (|T1_3| Bool) (|.loc.4| Bool) (|.loc.5| Bool) (|.loc.6| Bool) (|U1_0| (Array Int Int)) (|U1_1| Int) (|.x.497| Int) (|.x.495| Int) (|.x.489| Int) (|.x.486| (Array Int Int)) (|.x.484| Int) (|.x.483| (Array Int Int)) (|.x.481| Int) (|.x.480| Int) (|.x.479| Int) (|.x.477| Int) (|.x.476| Int) (|.x.475| Int) (|.x.474| Int) (|.x.472| Int) (|.x.469| Int) (|.x.470| Int) (|.x.493| Int) (|.x.511| Int) (|.x.492| Int) (|.x.505| Int) (|.x.501| Int) (|.x.507| Int) (|.x.512| Int) (|.x.509| Int) (|.x.473| Int) (|.x.482| (Array Int Int)) (|.x.504| Int) (|.x.491| Int) (|.x.496| Int) (|T1_10| Bool) (|.x.508| Int) (|.loc.7| Bool) (|.loc.9| Bool) (|.loc.8| Bool) (|.x.478| Int) (|.x.471| Int) (|.x.485| (Array Int Int)) (|.x.487| Int) (|.x.488| Int) (|.x.490| Int) (|.x.494| Int) (|.x.498| Int) (|.x.499| Int) (|.x.500| Int) (|.x.502| Int) (|.x.503| Int) (|.x.506| Int) (|.x.510| Int) (|.x.513| Int) (|.xtv.1| (Array Int Int)) (|.xtv.2| Int)) (=> (and (and (and (not .loc.4) (not .loc.5)) (not .loc.6)) (and (and (and (and (and (= Q_3 R_3) (not T1_3)) (= C_3 D_3)) (= E_3 F_3)) (= N_3 O_3)) (= J_3 K_3))) (state |A_3| |B_3| |C_3| |D_3| |E_3| |F_3| |G_3| |H_3| |I_3| |J_3| |K_3| |L_3| |M_3| |N_3| |O_3| |P_3| |Q_3| |R_3| |S_3| |T_3| |U_3| |V_3| |W_3| |U1_2| |Y_3| |Z_3| |A1_3| |B1_3| |C1_3| |D1_3| |E1_3| |F1_3| |G1_3| |H1_3| |I1_3| |J1_3| |K1_3| |L1_3| |M1_3| |N1_3| |V1_1| |P1_3| |Q1_3| |R1_3| |S1_3| |T1_3| |.loc.4| |.loc.5| |.loc.6| |U1_0| |U1_1|))))
(assert (forall ((|A_3| Int) (|B_3| Int) (|C_3| Int) (|D_3| Int) (|E_3| Int) (|F_3| Int) (|G_3| Int) (|H_3| Int) (|I_3| Int) (|J_3| Int) (|K_3| Int) (|L_3| Int) (|M_3| Int) (|N_3| (Array Int Int)) (|O_3| (Array Int Int)) (|P_3| Int) (|Q_3| (Array Int Int)) (|R_3| (Array Int Int)) (|S_3| Int) (|T_3| Int) (|U_3| Int) (|V_3| Int) (|W_3| Int) (|U1_2| Int) (|Y_3| Int) (|Z_3| Int) (|A1_3| Int) (|B1_3| Int) (|C1_3| Int) (|D1_3| Int) (|E1_3| Int) (|F1_3| Int) (|G1_3| Int) (|H1_3| Int) (|I1_3| Int) (|J1_3| Int) (|K1_3| Int) (|L1_3| Int) (|M1_3| Int) (|N1_3| Int) (|V1_1| Int) (|P1_3| Int) (|Q1_3| Int) (|R1_3| Int) (|S1_3| Int) (|T1_3| Bool) (|.loc.4| Bool) (|.loc.5| Bool) (|.loc.6| Bool) (|U1_0| (Array Int Int)) (|U1_1| Int) (|.x.497| Int) (|.x.495| Int) (|.x.489| Int) (|.x.486| (Array Int Int)) (|.x.484| Int) (|.x.483| (Array Int Int)) (|.x.481| Int) (|.x.480| Int) (|.x.479| Int) (|.x.477| Int) (|.x.476| Int) (|.x.475| Int) (|.x.474| Int) (|.x.472| Int) (|.x.469| Int) (|.x.470| Int) (|.x.493| Int) (|.x.511| Int) (|.x.492| Int) (|.x.505| Int) (|.x.501| Int) (|.x.507| Int) (|.x.512| Int) (|.x.509| Int) (|.x.473| Int) (|.x.482| (Array Int Int)) (|.x.504| Int) (|.x.491| Int) (|.x.496| Int) (|T1_10| Bool) (|.x.508| Int) (|.loc.7| Bool) (|.loc.9| Bool) (|.loc.8| Bool) (|.x.478| Int) (|.x.471| Int) (|.x.485| (Array Int Int)) (|.x.487| Int) (|.x.488| Int) (|.x.490| Int) (|.x.494| Int) (|.x.498| Int) (|.x.499| Int) (|.x.500| Int) (|.x.502| Int) (|.x.503| Int) (|.x.506| Int) (|.x.510| Int) (|.x.513| Int) (|.xtv.1| (Array Int Int)) (|.xtv.2| Int)) (=> (and (state |A_3| |B_3| |C_3| |D_3| |E_3| |F_3| |G_3| |H_3| |I_3| |J_3| |K_3| |L_3| |M_3| |N_3| |O_3| |P_3| |Q_3| |R_3| |S_3| |T_3| |U_3| |V_3| |W_3| |U1_2| |Y_3| |Z_3| |A1_3| |B1_3| |C1_3| |D1_3| |E1_3| |F1_3| |G1_3| |H1_3| |I1_3| |J1_3| |K1_3| |L1_3| |M1_3| |N1_3| |V1_1| |P1_3| |Q1_3| |R1_3| |S1_3| |T1_3| |.loc.4| |.loc.5| |.loc.6| |U1_0| |U1_1|) (let ((.def_61 (not .loc.4))) (let ((.def_62 (not .loc.5))) (let ((.def_128 (= .x.493 .x.511))) (let ((.def_133 (= .x.505 .x.501))) (let ((.def_138 (and (= .x.511 .x.507) (= .x.501 .x.512)))) (let ((.def_144 (and .def_128 (and (= .x.492 .x.505) (and .def_133 (and .def_138 (= .x.507 .x.509))))))) (let ((.def_147 (= E_3 .x.473))) (let ((.def_151 (or T1_3 (and (= S1_3 .x.492) (= I1_3 .x.509))))) (let ((.def_154 (= N_3 .x.482))) (let ((.def_161 (and .def_133 (and .def_128 .def_138)))) (let ((.def_164 (= V1_1 .x.509))) (let ((.def_166 (= M1_3 .x.507))) (let ((.def_168 (= K1_3 .x.505))) (let ((.def_171 (= J1_3 .x.504))) (let ((.def_173 (= U1_2 .x.492))) (let ((.def_176 (= W_3 .x.491))) (let ((.def_181 (= .x.473 0))) (let ((.def_183 (or T1_3 (and (= .x.482 (store N_3 R1_3 0)) .def_181)))) (let ((.def_187 (= .x.473 1))) (let ((.def_190 (= .x.493 0))) (let ((.def_191 (not .def_190))) (let ((.def_193 (= .x.512 0))) (let ((.def_194 (not .def_193))) (let ((.def_197 (= B1_3 .x.496))) (let ((.def_201 (= N1_3 .x.508))) (let ((.def_220 (= T1_3 T1_10))) (let ((.def_222 (= R1_3 .x.512))) (let ((.def_224 (= Q1_3 .x.511))) (let ((.def_226 (= G1_3 .x.501))) (let ((.def_228 (= Y_3 .x.493))) (let ((.def_232 (not .loc.7))) (let ((.def_236 (not .loc.8))) (let ((.def_239 (and T1_3 T1_10))) (let ((.def_253 (not .loc.9))) (let ((.def_280 (and .def_253 (and .def_220 (and .def_183 (and .def_176 (and .def_173 (and .def_171 (and .def_168 (and .def_166 (and .def_164 (and .def_61 (and .loc.8 (and .loc.7 (and .loc.5 (and .def_197 .def_201)))))))))))))))) (let ((.def_282 (or T1_10 (and .def_190 .def_193)))) (let ((.def_284 (or .def_161 T1_10))) (let ((.def_288 (or .def_187 T1_10))) (let ((.def_291 (or .def_194 (or .def_191 T1_10)))) (let ((.def_295 (= J_3 .x.478))) (let ((.def_297 (= C_3 .x.471))) (let ((.def_300 (= Q_3 .x.485))) (let ((.def_303 (= S_3 .x.487))) (let ((.def_306 (= T_3 .x.488))) (let ((.def_309 (= V_3 .x.490))) (let ((.def_312 (= Z_3 .x.494))) (let ((.def_315 (= D1_3 .x.498))) (let ((.def_318 (= E1_3 .x.499))) (let ((.def_321 (= F1_3 .x.500))) (let ((.def_324 (= H1_3 .x.502))) (let ((.def_327 (= I1_3 .x.503))) (let ((.def_330 (= L1_3 .x.506))) (let ((.def_333 (= P1_3 .x.510))) (let ((.def_336 (= S1_3 .x.513))) (let ((.def_340 (= .x.471 0))) (let ((.def_342 (= .x.478 0))) (let ((.def_345 (= U1_0 (store N_3 0 0)))) (let ((.def_348 (= .x.503 0))) (let ((.def_350 (= .x.513 0))) (let ((.def_364 (and .def_253 (and .def_228 (and .def_226 (and .def_224 (and .def_222 (and .def_220 (and .def_61 (and .def_236 (and .loc.7 (and .def_62 .def_197)))))))))))) (let ((.def_403 (or T1_10 (and (and (and (and (and (and (and (and (and (and (and (and (and (and (and (not (<= .x.506 .x.481)) (= .x.487 .x.500)) (= .x.488 4)) (= .x.494 .x.510)) (= .x.497 .x.499)) (= .x.490 .x.499)) (= .x.506 .x.513)) (= .x.489 .x.500)) (= .x.488 .x.502)) (= .x.495 .x.510)) (not (= .x.506 0))) (= .x.498 .x.503)) (= .x.498 0)) (= (select U1_0 .x.506) 0)) (= .x.485 (store Q_3 .x.506 .x.502))) (= .x.482 (store U1_0 .x.506 1)))))) (let ((.def_441 (and .def_253 (and .def_220 (and .def_232 (and .loc.8 (and .def_62 (and .loc.4 (and .def_336 (and .def_333 (and .def_201 (and .def_330 (and .def_327 (and .def_324 (and .def_321 (and .def_318 (and .def_315 (and .def_197 (and .def_312 (and .def_309 (and .def_306 (and .def_303 (and .def_300 (and .def_154 (and .def_295 (and .def_147 (and .def_151 .def_297))))))))))))))))))))))))))) (let ((.def_443 (or .def_144 T1_10))) (and (and (not .loc.6) (and (= C1_3 .x.497) (and (= A1_3 .x.495) (and (= U_3 .x.489) (and (= R_3 .x.486) (and (= P_3 .x.484) (and (= O_3 .x.483) (and (= M_3 .x.481) (and (= L_3 .x.480) (and (= K_3 .x.479) (and (= I_3 .x.477) (and (= H_3 .x.476) (and (= G_3 .x.475) (and (= F_3 .x.474) (and (= D_3 .x.472) (and (= A_3 .x.469) (= B_3 .x.470))))))))))))))))) (or (or (or (or (and (or (or (or (or (and (or (and (or (and .def_62 (and .loc.4 (and (or T1_3 .def_144) (and (and .def_147 .def_151) .def_154)))) (and (and (and (and (and (and (and (and (and .loc.5 .def_61) (or T1_3 .def_161)) .def_164) .def_166) .def_168) .def_171) .def_173) .def_176) .def_183)) (and (or T1_3 (not .def_187)) (and (or (or T1_3 .def_191) .def_194) (and (and .def_197 T1_10) .def_201)))) (and (and (and (and (and (and (or T1_10 (= .x.508 0)) (and (or T1_10 (= .x.496 .x.508)) (and .def_183 (and .def_176 (and .def_173 (and .def_171 (and .def_168 (and .def_166 (and .def_164 (and .loc.4 .loc.5)))))))))) .def_220) .def_222) .def_224) .def_226) .def_228)) (and (and .def_232 .loc.9) .def_236)) (and (and .def_183 (and .def_176 (and .def_173 (and .def_171 (and .def_168 (and .def_166 (and .def_164 (and .def_61 (and .loc.8 (and .loc.7 (and .loc.5 (and .def_201 (and .def_197 .def_239))))))))))))) .def_253)) (and .def_253 (and .def_232 (and .loc.8 (and .def_62 (and .loc.4 (and .def_201 (and .def_197 (and .def_154 (and .def_147 (and .def_151 .def_239))))))))))) (and (and .def_280 .def_282) .def_284)) (and (and (and .def_280 .def_284) .def_288) .def_291)) (and (and (and (and (and (and (and (and (and (and (and (and (and (and .def_295 .def_297) .def_300) .def_303) .def_306) .def_309) .def_312) .def_315) .def_318) .def_321) .def_324) .def_327) .def_330) .def_333) .def_336)) (and (or T1_3 (and (and (and (= U1_1 0) .def_340) .def_342) .def_345)) (and (and (or T1_10 (and .def_187 (or (not .def_348) (not .def_350)))) .def_364) .def_403))) (and (or T1_3 (and .def_345 (and .def_342 (and .def_181 .def_340)))) (and (or T1_10 (and .def_348 .def_350)) (and .def_364 .def_403)))) (and (and .def_282 .def_441) .def_443)) (and .def_443 (and .def_291 (and .def_288 .def_441))))))))))))))))))))))))))))))))))))))))))))))))))))))))))))))))))))) (state |.x.469| |.x.470| |.x.471| |.x.472| |.x.473| |.x.474| |.x.475| |.x.476| |.x.477| |.x.478| |.x.479| |.x.480| |.x.481| |.x.482| |.x.483| |.x.484| |.x.485| |.x.486| |.x.487| |.x.488| |.x.489| |.x.490| |.x.491| |.x.492| |.x.493| |.x.494| |.x.495| |.x.496| |.x.497| |.x.498| |.x.499| |.x.500| |.x.501| |.x.502| |.x.503| |.x.504| |.x.505| |.x.506| |.x.507| |.x.508| |.x.509| |.x.510| |.x.511| |.x.512| |.x.513| |T1_10| |.loc.7| |.loc.8| |.loc.9| |.xtv.1| |.xtv.2|))))
(assert (forall ((|A_3| Int) (|B_3| Int) (|C_3| Int) (|D_3| Int) (|E_3| Int) (|F_3| Int) (|G_3| Int) (|H_3| Int) (|I_3| Int) (|J_3| Int) (|K_3| Int) (|L_3| Int) (|M_3| Int) (|N_3| (Array Int Int)) (|O_3| (Array Int Int)) (|P_3| Int) (|Q_3| (Array Int Int)) (|R_3| (Array Int Int)) (|S_3| Int) (|T_3| Int) (|U_3| Int) (|V_3| Int) (|W_3| Int) (|U1_2| Int) (|Y_3| Int) (|Z_3| Int) (|A1_3| Int) (|B1_3| Int) (|C1_3| Int) (|D1_3| Int) (|E1_3| Int) (|F1_3| Int) (|G1_3| Int) (|H1_3| Int) (|I1_3| Int) (|J1_3| Int) (|K1_3| Int) (|L1_3| Int) (|M1_3| Int) (|N1_3| Int) (|V1_1| Int) (|P1_3| Int) (|Q1_3| Int) (|R1_3| Int) (|S1_3| Int) (|T1_3| Bool) (|.loc.4| Bool) (|.loc.5| Bool) (|.loc.6| Bool) (|U1_0| (Array Int Int)) (|U1_1| Int) (|.x.497| Int) (|.x.495| Int) (|.x.489| Int) (|.x.486| (Array Int Int)) (|.x.484| Int) (|.x.483| (Array Int Int)) (|.x.481| Int) (|.x.480| Int) (|.x.479| Int) (|.x.477| Int) (|.x.476| Int) (|.x.475| Int) (|.x.474| Int) (|.x.472| Int) (|.x.469| Int) (|.x.470| Int) (|.x.493| Int) (|.x.511| Int) (|.x.492| Int) (|.x.505| Int) (|.x.501| Int) (|.x.507| Int) (|.x.512| Int) (|.x.509| Int) (|.x.473| Int) (|.x.482| (Array Int Int)) (|.x.504| Int) (|.x.491| Int) (|.x.496| Int) (|T1_10| Bool) (|.x.508| Int) (|.loc.7| Bool) (|.loc.9| Bool) (|.loc.8| Bool) (|.x.478| Int) (|.x.471| Int) (|.x.485| (Array Int Int)) (|.x.487| Int) (|.x.488| Int) (|.x.490| Int) (|.x.494| Int) (|.x.498| Int) (|.x.499| Int) (|.x.500| Int) (|.x.502| Int) (|.x.503| Int) (|.x.506| Int) (|.x.510| Int) (|.x.513| Int) (|.xtv.1| (Array Int Int)) (|.xtv.2| Int)) (=> (state |A_3| |B_3| |C_3| |D_3| |E_3| |F_3| |G_3| |H_3| |I_3| |J_3| |K_3| |L_3| |M_3| |N_3| |O_3| |P_3| |Q_3| |R_3| |S_3| |T_3| |U_3| |V_3| |W_3| |U1_2| |Y_3| |Z_3| |A1_3| |B1_3| |C1_3| |D1_3| |E1_3| |F1_3| |G1_3| |H1_3| |I1_3| |J1_3| |K1_3| |L1_3| |M1_3| |N1_3| |V1_1| |P1_3| |Q1_3| |R1_3| |S1_3| |T1_3| |.loc.4| |.loc.5| |.loc.6| |U1_0| |U1_1|) (not (and T1_3 (and .loc.6 (and (not .loc.4) (not .loc.5))))))))
(check-sat)
